NAME : random_6
COMMENT : 30 random nodes
TYPE : TSP
DIMENSION : 30
EDGE_WEIGHT_TYPE : EUC_2D
NODE_COORD_SECTION
1 772 530
2 526 84
3 996 244
4 949 943
5 934 190
6 640 870
7 476 728
8 911 58
9 848 221
10 228 693
11 803 464
12 208 27
13 577 219
14 94 604
15 685 922
16 379 61
17 987 669
18 630 277
19 754 497
20 550 767
21 218 367
22 845 745
23 457 956
24 608 321
25 303 338
26 239 399
27 25 535
28 63 827
29 763 124
30 20 328
EOF